;  time = 600.0108644962311
(set-logic QF_FP)
(declare-const x0 (_ FloatingPoint 8 24))
(declare-const x1 (_ FloatingPoint 8 24))
(declare-const x2 (_ FloatingPoint 8 24))
(declare-const x3 (_ FloatingPoint 8 24))
(declare-const x4 (_ FloatingPoint 8 24))
(declare-const x5 (_ FloatingPoint 8 24))
(declare-const x6 (_ FloatingPoint 8 24))
(declare-const x7 (_ FloatingPoint 8 24))
(declare-const x8 (_ FloatingPoint 8 24))
(declare-const x9 (_ FloatingPoint 8 24))
(declare-const x10 (_ FloatingPoint 8 24))
(declare-const x11 (_ FloatingPoint 8 24))
(declare-const x12 (_ FloatingPoint 8 24))
(declare-const x13 (_ FloatingPoint 8 24))
(declare-const x14 (_ FloatingPoint 8 24))
(assert (fp.isSubnormal (fp.mul RNE (fp.sub RNE (fp.add RNE (fp.sub RNE (fp.sub RNE x13 x2) (fp.add RNE (fp.abs (fp.mul RNE x14 (fp.mul RNE (fp.neg x10) (fp.add RNE x9 x1)))) (fp.mul RNE (fp.sub RNE (fp.mul RNE (fp.sub RNE x8 x14) (fp.sub RNE x1 x8)) (fp.neg (fp.abs x7))) (fp.neg (fp.mul RNE (fp.add RNE x11 x12) (fp.neg x10)))))) (fp.add RNE (fp.neg (fp.neg (fp.sub RNE (fp.mul RNE x9 (fp.neg x4)) (fp.sub RNE x9 (fp.neg x2))))) x9)) (fp.sub RNE (fp.add RNE (fp.abs (fp.add RNE (fp.neg x7) (fp.sub RNE (fp.neg (fp.sub RNE x9 x13)) (fp.neg (fp.add RNE x0 x11))))) (fp.sub RNE (fp.add RNE (fp.abs (fp.abs x2)) (fp.add RNE (fp.mul RNE (fp.sub RNE x13 x0) x14) x6)) (fp.abs x10))) x14)) (fp.neg (fp.neg (fp.mul RNE (fp.neg x14) (fp.sub RNE (fp.add RNE x11 x10) (fp.abs (fp.abs (fp.add RNE (fp.mul RNE x12 x11) x1))))))))))
(check-sat)